NAME : rcdp1007
TYPE : VRPSPDTW
DIMENSION : 11
VEHICLES : 2
CAPACITY : 200
EDGE_WEIGHT_TYPE : EXACT_2D
NODE_COORD_SECTION
1 40 50
2 22 85
3 20 85
4 15 75
5 35 5
6 18 80
7 15 10
8 40 60
9 49 58
10 55 54
11 26 35
PICKUP_AND_DELIVERY_SECTION
1 0 0 240 0 0 0
2 0 101 146 10 20 10
3 0 40 113 10 30 20
4 0 69 118 10 40 20
5 0 54 184 10 10 20
6 0 98 157 10 10 10
7 0 56 182 10 16 20
8 0 100 217 10 9 21
9 0 80 121 10 7 10
10 0 121 172 10 5 26
11 0 37 146 10 13 15
DEPOT_SECTION
1 
-1
